(declare-const x0 Real)
(assert (<= 0.0 x0))
(declare-const x1 Real)
(assert (<= 0.0 x1))
(declare-const x2 Real)
(assert (<= 0.0 x2))
(declare-const x3 Real)
(assert (<= 0.0 x3))
(declare-const x4 Real)
(assert (<= 0.0 x4))

(assert (<= (- 0.250000) (+ (* (- 3.500000) x0) (* 2.0 x2))))
(assert (<= (- 4.0) (+ (* (- 2.0) x1) (* (- 4.0) x3) (* (- 1.0) x4))))
(assert (<= (- 4.0) (+ (* (- 9.0) x1) (* (- 2.0) x2) (* 1.0 x3) (* (- 2.800000) x4))))
(assert (<= (- 1.0) (+ (* 2.0 x0) (* (- 4.0) x2))))
(assert (<= 5.0 (+ (* 1.0 x0) (* 2.0 x1) (* 3.0 x2) (* 4.0 x3) (* 5.0 x4))))
(assert (<= 1.0 (+ (* 1.0 x0) (* 1.0 x1) (* 1.0 x2) (* 1.0 x3) (* 1.0 x4))))

(minimize
	(+ (* (- 15.0) x0) (* (- 27.0) x1) (* (- 36.0) x2) (* (- 18.0) x3) (* (- 12.0) x4) (+ (* (* 30.0 x0) x0) (* (* (- 20.0) x0) x1) (* (* (- 10.0) x0) x2) (* (* 32.0 x0) x3) (* (* (- 10.0) x0) x4) (* (* (- 20.0) x1) x0) (* (* 39.0 x1) x1) (* (* (- 6.0) x1) x2) (* (* (- 31.0) x1) x3) (* (* 32.0 x1) x4) (* (* (- 10.0) x2) x0) (* (* (- 6.0) x2) x1) (* (* 10.0 x2) x2) (* (* (- 6.0) x2) x3) (* (* (- 10.0) x2) x4) (* (* 32.0 x3) x0) (* (* (- 31.0) x3) x1) (* (* (- 6.0) x3) x2) (* (* 39.0 x3) x3) (* (* (- 20.0) x3) x4) (* (* (- 10.0) x4) x0) (* (* 32.0 x4) x1) (* (* (- 10.0) x4) x2) (* (* (- 20.0) x4) x3) (* (* 30.0 x4) x4) (* 4.0 (^ x0 3.0)) (* 8.0 (^ x1 3.0)) (* 10.0 (^ x2 3.0)) (* 6.0 (^ x3 3.0)) (* 2.0 (^ x4 3.0))))
)
(check-sat)
(get-objectives)
(exit)

